/*********************************************
 * OPL 12.7.1.0 Data
 * Author: anthonyn
 * Creation Date: Jan 2, 2018 at 6:09:58 PM
 *********************************************/
 
// A
 numNurses = 20;
 hours =  24;
 demand = [ 2 2 1 1 1 2 2 3 4 6 6 7 5 8 8 7 6 6 4 3 4 3 3 3 ];
 minHours = 5;
 maxHours = 9;
 maxConsec = 3;
 
 // B
 maxPresence = 14;
  